\ENCODING=ISO-8859-1
\Problem name: ILOG.CPLEX

Maximize
 obj: 0.555555555555555 x1 + 1.06666666666667 x2 - 0.4 x3 + [ - 0.00001 x1 ^2
      + 0.0000133333333333333 x1 * x2 + 0.0000333333333333333 x1 * x3
      - 0.00002 x2 ^2 + 0.0000166666666666667 x2 * x3
      - 0.0000579166666666667 x3 ^2 ] / 2
Subject To
 c1: x1 + x2 + x3  = 1
Bounds
 0 <= x1 <= 1
 0 <= x2 <= 1
 0 <= x3 <= 1
End

